  Job Started  at 17:10.05 19th June       2020

  Number of CPUs =     1

  Total number of configurations input =   1

*  Input for Configuration =   1                                               *

  Formula = Al

  Number of irreducible atoms/shells =       1

  Total number atoms/shells =       1

  Dimensionality = 3               :  Bulk

  Symmetry :

  Crystal family                   :  Cubic
  Crystal class  (Groth - 1921)    :  Cubic Hexakisoctahedral

  Space group (centrosymmetric)    :  F M 3 M

  Patterson group                  :  F m -3 m

  Cartesian lattice vectors (Angstroms) :

        0.000000    2.025000    2.025000
        2.025000    0.000000    2.025000
        2.025000    2.025000    0.000000

  Primitive cell parameters :            Full cell parameters :

  a =   2.8638    alpha =  60.0000       a =   4.0500    alpha =  90.0000
  b =   2.8638    beta  =  60.0000       b =   4.0500    beta  =  90.0000
  c =   2.8638    gamma =  60.0000       c =   4.0500    gamma =  90.0000

  Initial volumes (Angstroms**3):

  Primitive cell =          16.607531    Full cell =          66.430125

  Shrinking factors =      5     5     5

  Temperature of configuration =  0.000     K

  Pressure of configuration =         0.000 GPa

  Fractional coordinates of asymmetric unit :

   No.  Atomic       x           y          z         Charge      Occupancy
        Label      (Frac)      (Frac)     (Frac)        (e)         (Frac)
      1 Al    c    0.000000    0.000000    0.000000     0.00000    1.000000

  Brillouin zone sampling points :

  Point number          x          y          z            Weight
        1           0.100000   0.100000   0.100000         0.0080
        2           0.300000   0.100000   0.100000         0.0240
        3           0.300000   0.300000   0.100000         0.0240
        4           0.300000   0.300000   0.300000         0.0080
        5           0.500000   0.100000   0.100000         0.0240
        6           0.500000   0.300000   0.100000         0.0480
        7           0.500000   0.300000   0.300000         0.0240
        8           0.500000   0.500000   0.100000         0.0240
        9           0.500000   0.500000   0.300000         0.0240
       10           0.500000   0.500000   0.500000         0.0080
       11           0.700000   0.100000   0.100000         0.0240
       12           0.700000   0.300000   0.100000         0.0480
       13           0.700000   0.300000   0.300000         0.0240
       14           0.700000   0.500000   0.100000         0.0480
       15           0.700000   0.500000   0.300000         0.0480
       16           0.700000   0.500000   0.500000         0.0240
       17           0.700000   0.700000   0.100000         0.0240
       18           0.700000   0.700000   0.300000         0.0240
       19           0.700000   0.700000   0.500000         0.0240
       20           0.700000   0.700000   0.700000         0.0080
       21           0.900000   0.100000   0.100000         0.0240
       22           0.900000   0.300000   0.100000         0.0480
       23           0.900000   0.300000   0.300000         0.0240
       24           0.900000   0.500000   0.100000         0.0480
       25           0.900000   0.500000   0.300000         0.0480
       26           0.900000   0.500000   0.500000         0.0240
       27           0.900000   0.700000   0.100000         0.0480
       28           0.900000   0.700000   0.300000         0.0480
       29           0.900000   0.700000   0.500000         0.0480
       30           0.900000   0.700000   0.700000         0.0240
       31           0.900000   0.900000   0.100000         0.0240
       32           0.900000   0.900000   0.300000         0.0240
       33           0.900000   0.900000   0.500000         0.0240
       34           0.900000   0.900000   0.700000         0.0240
       35           0.900000   0.900000   0.900000         0.0080

*  General input information                                                   *

  Species output for all configurations :

  Species    Type    Atomic    Atomic    Charge       Radii (Angs)     Library
                     Number     Mass       (e)     Cova   Ionic  VDW   Symbol
    Al       Core       13      26.98   0.000000   1.350  0.000  2.050

  Lattice summation method               =    Ewald          (3-D)
                                         =    Parry          (2-D)
                                         =    Saunders et al (1-D)
  Accuracy factor for lattice sums       =   12.000

  Time limit = Infinity

  Maximum range for interatomic potentials =    100000.000000 Angstroms

  General interatomic potentials :

Atom  Types   Potential         A         B         C         D     Cutoffs(Ang)
  1     2                                                            Min    Max
Al   c Al   c Lennard 12  6 0.388E+05  118.      0.00      0.00     0.000  4.000

*  Output for configuration   1                                                *

  Components of energy :

  Interatomic potentials     =          -0.52276919 eV
  Monopole - monopole (real) =           0.00000000 eV
  Monopole - monopole (recip)=           0.00000000 eV
  Monopole - monopole (total)=           0.00000000 eV
  Total lattice energy :
    Primitive unit cell      =          -0.52276919 eV
    Non-primitive unit cell  =          -2.09107675 eV
  Total lattice energy (in kJmol-1):
    Primitive unit cell      =             -50.4392 kJ/(mole unit cells)
    Non-primitive unit cell  =            -201.7569 kJ/(mole unit cells)

  Elastic Constant Matrix: (Units=GPa)

  Indices      1         2         3         4         5         6
       1     97.8092   53.5657   53.5657    0.0000    0.0000    0.0000
       2     53.5657   97.8092   53.5657    0.0000    0.0000    0.0000
       3     53.5657   53.5657   97.8092    0.0000    0.0000    0.0000
       4      0.0000    0.0000    0.0000   48.9046    0.0000    0.0000
       5      0.0000    0.0000    0.0000    0.0000   48.9046    0.0000
       6      0.0000    0.0000    0.0000    0.0000    0.0000   48.9046

  Elastic Compliance Matrix: (Units=1/GPa)

  Indices      1         2         3         4         5         6
       1    0.016695 -0.005908 -0.005908  0.000000  0.000000  0.000000
       2   -0.005908  0.016695 -0.005908  0.000000  0.000000  0.000000
       3   -0.005908 -0.005908  0.016695  0.000000  0.000000  0.000000
       4    0.000000  0.000000  0.000000  0.020448  0.000000  0.000000
       5    0.000000  0.000000  0.000000  0.000000  0.020448  0.000000
       6    0.000000  0.000000  0.000000  0.000000  0.000000  0.020448

  Mechanical properties :

  Convention :                    Reuss         Voigt         Hill
  Bulk  Modulus (GPa)     =      68.31351      68.31351      68.31351
  Shear Modulus (GPa)     =      32.94832      38.19144      35.56988
  Velocity S-wave (km/s)  =       3.49478       3.76259       3.63115
  Velocity P-wave (km/s)  =       6.45039       6.64823       6.55006
  Compressibility (1/GPa) =    0.01463839
  Stress axis :                     x             y             z
  Youngs Moduli (GPa)     =      59.89951      59.89951      59.89951
  Poissons Ratio (x)      =                     0.35386       0.35386
  Poissons Ratio (y)      =       0.35386                     0.35386
  Poissons Ratio (z)      =       0.35386       0.35386

  Piezoelectric Strain Matrix: (Units=C/m**2)

  Indices      1         2         3         4         5         6
       x     0.00000   0.00000   0.00000   0.00000   0.00000   0.00000
       y     0.00000   0.00000   0.00000   0.00000   0.00000   0.00000
       z     0.00000   0.00000   0.00000   0.00000   0.00000   0.00000

  Piezoelectric Stress Matrix: (Units=10**-11 C/N)

  Indices      1         2         3         4         5         6
       x     0.00000   0.00000   0.00000   0.00000   0.00000   0.00000
       y     0.00000   0.00000   0.00000   0.00000   0.00000   0.00000
       z     0.00000   0.00000   0.00000   0.00000   0.00000   0.00000

  Static dielectric constant tensor :

              x         y         z
       x     1.00000   0.00000   0.00000
       y     0.00000   1.00000   0.00000
       z     0.00000   0.00000   1.00000

  Static refractive indices :

    1 =    1.00000      2 =    1.00000      3 =    1.00000

  Phonon Calculation :

  Number of k points for this configuration =       35

  K point      1 =   0.100000  0.100000  0.100000  Weight =    0.008

  Frequencies (cm-1) [NB: Negative implies an imaginary mode]:

[...]

  K point     35 =   0.900000  0.900000  0.900000  Weight =    0.008

  Frequencies (cm-1) [NB: Negative implies an imaginary mode]:

   47.60   47.60  100.43

  Phonon properties (per mole of unit cells): Temperature =      0.000 K
  Zero point energy            =        0.040373 eV

  Phonon density of states :

 Frequency (cm-1) Density of States
    0.00000 |                                                              0.000
    5.07788 |                                                              0.000
   10.15576 |                                                              0.000
   15.23364 |                                                              0.000
   20.31152 |                                                              0.000
   25.38940 |                                                              0.000
   30.46728 |                                                              0.000
   35.54516 |                                                              0.000
   40.62304 |                                                              0.000
   45.70092 |*********                                                     0.011
   50.77880 |                                                              0.000
   55.85668 |                                                              0.000
   60.93456 |                                                              0.000
   66.01244 |                                                              0.000
   71.09032 |                                                              0.000
   76.16820 |                                                              0.000
   81.24608 |                                                              0.000
   86.32396 |                                                              0.000
   91.40184 |*************                                                 0.016
   96.47972 |******************                                            0.021
  101.55760 |*************                                                 0.016
  106.63548 |                                                              0.000
  111.71336 |                                                              0.000
  116.79124 |                                                              0.000
  121.86912 |*********                                                     0.011
  126.94700 |                                                              0.000
  132.02488 |                                                              0.000
  137.10276 |*************                                                 0.016
  142.18064 |***************************                                   0.032
  147.25852 |                                                              0.000
  152.33640 |***********************************************************   0.069
  157.41428 |***************************                                   0.032
  162.49216 |                                                              0.000
  167.57004 |*************                                                 0.016
  172.64792 |***************************                                   0.032
  177.72580 |*****************************************                     0.048
  182.80368 |***************************                                   0.032
  187.88156 |***************************                                   0.032
  192.95944 |***************************                                   0.032
  198.03732 |                                                              0.000
  203.11520 |***************************                                   0.032
  208.19308 |***************************                                   0.032
  213.27096 |*******************************************************       0.064
  218.34884 |*****************************************                     0.048
  223.42672 |                                                              0.000
  228.50460 |*************                                                 0.016
  233.58248 |                                                              0.000
  238.66036 |*************                                                 0.016
  243.73824 |***************************                                   0.032
  248.81612 |***************************                                   0.032
  253.89400 |*************                                                 0.016
  258.97188 |****                                                          0.005
  264.04976 |*****************************************                     0.048
  269.12764 |                                                              0.000
  274.20552 |                                                              0.000
  279.28341 |                                                              0.000
  284.36129 |*****************************************                     0.048
  289.43917 |*******************************************************       0.064
  294.51705 |***************************                                   0.032
  299.59493 |***************************                                   0.032
  304.67281 |*************                                                 0.016
  309.75069 |***************************                                   0.032
  314.82857 |*************                                                 0.016
  319.90645 |**                                                            0.003

 kt init_par   0.0000000000000000        0.0000000000000000        0.0000000000000000        0.0000000000000000

  Time to end of properties =       0.0240 seconds

  Timing analysis for GULP :

  Task / Subroutine                                          Time (Seconds)
  Calculation of real space energy and derivatives                0.0080
  Calculation of phonons                                          0.0080
  Calculation of scattering                                       0.0080

  Dump file written as al_org.res

  Job Finished at 17:10.05 19th June       2020