 vasp.5.4.1 05Feb16 (build Mar 26 2016 11:58:25) complex

 executed on           IFC91_ompi date 2016.06.01  10:57:47

 INCAR:
 POTCAR:   PAW_PBE Si 05Jan2001
 POTCAR:   PAW_PBE N 08Apr2002

 POTCAR:   PAW_PBE Si 05Jan2001
   VRHFIN =Si: s2p2

   TITEL  = PAW_PBE Si 05Jan2001
   POMASS =   28.085; ZVAL   =    4.000    mass and valenz
   ENMAX  =  245.345; ENMIN  =  184.009 eV
   QCUT   =   -4.246; QGAM   =    8.493    optimization parameters

   Description
     l     E      TYP  RCUT    TYP  RCUT
     0   .000     23  1.900
     0   .000     23  1.900
     1   .000     23  1.900
     1   .000     23  1.900
     2   .000      7  1.900

 POTCAR:   PAW_PBE N 08Apr2002
   VRHFIN =N: s2p3

   TITEL  = PAW_PBE N 08Apr2002
   POMASS =   14.001; ZVAL   =    5.000    mass and valenz
   ENMAX  =  400.000; ENMIN  =  300.000 eV
   QCUT   =   -5.562; QGAM   =   11.124    optimization parameters

   Description
     l     E      TYP  RCUT    TYP  RCUT
     0   .000     23  1.200
     0   .000     23  1.200
     1   .000     23  1.500
     1   .700     23  1.500
     2   .000      7  1.500

 PAW_PBE Si 05Jan2001                   :
 PAW_PBE N 08Apr2002                    :

 POSCAR: gamma-si3n4-opt-unit.car
  positions in direct lattice
  velocities in cartesian coordinates
 exchange correlation table for  LEXCH =        8
   RHO(1)=    0.500       N(1)  =     2000
   RHO(2)=  100.500       N(2)  =     4000

 ion  position               nearest neighbor table
   1  0.125  0.875  0.875-  25 1.89  28 1.89  54 1.89  36 1.89  30 1.89  29 1.89   2 2.75  22 2.75
                            19 2.75   4 2.75   8 2.75   9 2.75
   2  0.875  0.125  0.875-  25 1.89  28 1.89  53 1.89  33 1.89  32 1.89  31 1.89   1 2.75  22 2.75
                            19 2.75   3 2.75  10 2.75   7 2.75
   3  0.625  0.375  0.875-  56 1.89  27 1.89  26 1.89  31 1.89  35 1.89  32 1.89  20 2.75  21 2.75
                             4 2.75   2 2.75   7 2.75  10 2.75
   4  0.375  0.625  0.875-  55 1.89  27 1.89  26 1.89  29 1.89  34 1.89  30 1.89  20 2.75  21 2.75
                             3 2.75   1 2.75   9 2.75   8 2.75
   5  0.750  0.750  0.750-  38 1.79  39 1.79  26 1.79  25 1.79
   6  0.250  0.250  0.750-  37 1.79  40 1.79  27 1.79  28 1.79
   7  0.625  0.125  0.625-  39 1.89  40 1.89  42 1.89  33 1.89  32 1.89  35 1.89   8 2.75  16 2.75
                            15 2.75   3 2.75  10 2.75   2 2.75
   8  0.375  0.875  0.625-  40 1.89  41 1.89  39 1.89  29 1.89  34 1.89  36 1.89  15 2.75   7 2.75
                            16 2.75   1 2.75   9 2.75   4 2.75
   9  0.125  0.625  0.625-  38 1.89  37 1.89  44 1.89  36 1.89  30 1.89  34 1.89  10 2.75  13 2.75
                            14 2.75   8 2.75   4 2.75   1 2.75
  10  0.875  0.375  0.625-  37 1.89  43 1.89  38 1.89  35 1.89  31 1.89  33 1.89  14 2.75   9 2.75
                            13 2.75   2 2.75   7 2.75   3 2.75
  11  0.000  0.000  0.500-  48 1.79  36 1.79  33 1.79  46 1.79
  12  0.500  0.500  0.500-  47 1.79  35 1.79  45 1.79  34 1.79
  13  0.875  0.625  0.375-  44 1.89  43 1.89  38 1.89  45 1.89  48 1.89  52 1.89  14 2.75   9 2.75
                            10 2.75  22 2.75  21 2.75  16 2.75
  14  0.125  0.375  0.375-  43 1.89  46 1.89  49 1.89  47 1.89  44 1.89  37 1.89  10 2.75  13 2.75
                            15 2.75  20 2.75  19 2.75   9 2.75
  15  0.375  0.125  0.375-  41 1.89  46 1.89  50 1.89  47 1.89  42 1.89  40 1.89   8 2.75  16 2.75
                            14 2.75  20 2.75  19 2.75   7 2.75
  16  0.625  0.875  0.375-  42 1.89  41 1.89  39 1.89  45 1.89  48 1.89  51 1.89  15 2.75   7 2.75
                             8 2.75  22 2.75  21 2.75  13 2.75
  17  0.250  0.750  0.250-  44 1.79  55 1.79  41 1.79  54 1.79
  18  0.750  0.250  0.250-  42 1.79  56 1.79  43 1.79  53 1.79
  19  0.125  0.125  0.125-  53 1.89  28 1.89  54 1.89  50 1.89  49 1.89  46 1.89   1 2.75   2 2.75
                            22 2.75  15 2.75  20 2.75  14 2.75
  20  0.375  0.375  0.125-  27 1.89  49 1.89  50 1.89  47 1.89  56 1.89  55 1.89   3 2.75   4 2.75
                            14 2.75  15 2.75  19 2.75  21 2.75
  21  0.625  0.625  0.125-  26 1.89  55 1.89  56 1.89  52 1.89  51 1.89  45 1.89   3 2.75   4 2.75
                            20 2.75  16 2.75  13 2.75  22 2.75
  22  0.875  0.875  0.125-  25 1.89  54 1.89  53 1.89  51 1.89  52 1.89  48 1.89   1 2.75   2 2.75
                            19 2.75  16 2.75  13 2.75  21 2.75
  23  0.500  0.000  0.000-  29 1.79  32 1.79  51 1.79  50 1.79
  24  0.000  0.500  0.000-  31 1.79  30 1.79  52 1.79  49 1.79
  25  0.882  0.882  0.882-   5 1.79  22 1.89   1 1.89   2 1.89
  26  0.618  0.618  0.882-   5 1.79  21 1.89   3 1.89   4 1.89
  27  0.382  0.382  0.882-   6 1.79  20 1.89   3 1.89   4 1.89
  28  0.118  0.118  0.882-   6 1.79   2 1.89   1 1.89  19 1.89
  29  0.368  0.868  0.868-  23 1.79   8 1.89   4 1.89   1 1.89
  30  0.132  0.632  0.868-  24 1.79   1 1.89   9 1.89   4 1.89
  31  0.868  0.368  0.868-  24 1.79  10 1.89   3 1.89   2 1.89
  32  0.632  0.132  0.868-  23 1.79   2 1.89   7 1.89   3 1.89
  33  0.868  0.132  0.632-  11 1.79   7 1.89   2 1.89  10 1.89
  34  0.368  0.632  0.632-  12 1.79   8 1.89   4 1.89   9 1.89
  35  0.632  0.368  0.632-  12 1.79  10 1.89   3 1.89   7 1.89
  36  0.132  0.868  0.632-  11 1.79   1 1.89   9 1.89   8 1.89
  37  0.118  0.382  0.618-   6 1.79  10 1.89  14 1.89   9 1.89
  38  0.882  0.618  0.618-   5 1.79   9 1.89  13 1.89  10 1.89
  39  0.618  0.882  0.618-   5 1.79   7 1.89   8 1.89  16 1.89
  40  0.382  0.118  0.618-   6 1.79   8 1.89   7 1.89  15 1.89
  41  0.382  0.882  0.382-  17 1.79  15 1.89   8 1.89  16 1.89
  42  0.618  0.118  0.382-  18 1.79  16 1.89  15 1.89   7 1.89
  43  0.882  0.382  0.382-  18 1.79  14 1.89  10 1.89  13 1.89
  44  0.118  0.618  0.382-  17 1.79  13 1.89  14 1.89   9 1.89
  45  0.632  0.632  0.368-  12 1.79  13 1.89  16 1.89  21 1.89
  46  0.132  0.132  0.368-  11 1.79  14 1.89  15 1.89  19 1.89
  47  0.368  0.368  0.368-  12 1.79  14 1.89  15 1.89  20 1.89
  48  0.868  0.868  0.368-  11 1.79  13 1.89  16 1.89  22 1.89
  49  0.132  0.368  0.132-  24 1.79  20 1.89  14 1.89  19 1.89
  50  0.368  0.132  0.132-  23 1.79  15 1.89  20 1.89  19 1.89
  51  0.632  0.868  0.132-  23 1.79  22 1.89  21 1.89  16 1.89
  52  0.868  0.632  0.132-  24 1.79  21 1.89  22 1.89  13 1.89
  53  0.882  0.118  0.118-  18 1.79   2 1.89  19 1.89  22 1.89
  54  0.118  0.882  0.118-  17 1.79   1 1.89  22 1.89  19 1.89
  55  0.382  0.618  0.118-  17 1.79   4 1.89  21 1.89  20 1.89
  56  0.618  0.382  0.118-  18 1.79   3 1.89  20 1.89  21 1.89

  LATTYP: Found a simple cubic cell.
 ALAT       =     7.7867631903

  Lattice vectors:

 A1 = (   7.7867631903,   0.0000000000,   0.0000000000)
 A2 = (   0.0000000000,   7.7867631903,   0.0000000000)
 A3 = (   0.0000000000,   0.0000000000,   7.7867631903)

Analysis of symmetry for initial positions (statically):
 Subroutine PRICEL returns following result:

  LATTYP: Found a face centered cubic cell.
 ALAT       =     7.7867631903

[...]

   4 primitive cells build up your supercell.

 Routine SETGRP: Setting up the symmetry group for a
 simple cubic supercell.

 Subroutine GETGRP returns: Found 48 space group operations
 (whereof 24 operations were pure point group operations)
 out of a pool of 48 trial point group operations.

The static configuration has the point symmetry T_d .
 The point group associated with its full space group is O_h .

Analysis of symmetry for dynamics (positions and initial velocities):
 Subroutine PRICEL returns following result:

[...]

The dynamic configuration has the point symmetry T_d .
 The point group associated with its full space group is O_h .

Analysis of constrained symmetry for selective dynamics:
 Subroutine PRICEL returns following result:

[...]

The constrained configuration has the point symmetry T_d .
 The point group associated with its full space group is O_h .

 Subroutine INISYM returns: Found 48 space group operations
 (whereof 24 operations are pure point group operations),
 and found     4 'primitive' translations

 KPOINTS: Automatic mesh

Automatic generation of k-mesh.
Space group operators:
 irot       det(A)        alpha          n_x          n_y          n_z        tau_x        tau_y        tau_z
    1     1.000000     0.000000     1.000000     0.000000     0.000000     0.000000     0.000000     0.000000
    2     1.000000   120.000000    -0.577350    -0.577350    -0.577350     0.000000     0.000000     0.000000
    3     1.000000   120.000000     0.577350     0.577350     0.577350     0.000000     0.000000     0.000000
    4    -1.000000    90.000000     0.000000     0.000000    -1.000000     0.000000     0.000000     0.000000
    5    -1.000000   180.000000     0.000000    -0.707107    -0.707107     0.000000     0.000000     0.000000
    6    -1.000000    90.000000     0.000000     1.000000     0.000000     0.000000     0.000000     0.000000
    7     1.000000   180.000000     0.000000     0.000000     1.000000     0.000000     0.000000     0.000000
    8     1.000000   120.000000    -0.577350     0.577350     0.577350     0.000000     0.000000     0.000000
    9     1.000000   120.000000    -0.577350     0.577350    -0.577350     0.000000     0.000000     0.000000
   10    -1.000000    90.000000     0.000000     0.000000     1.000000     0.000000     0.000000     0.000000
   11    -1.000000    90.000000    -1.000000     0.000000     0.000000     0.000000     0.000000     0.000000
   12    -1.000000   179.999999     0.707107     0.000000     0.707107     0.000000     0.000000     0.000000
   13     1.000000   120.000000     0.577350    -0.577350     0.577350     0.000000     0.000000     0.000000
   14     1.000000   120.000000    -0.577350    -0.577350     0.577350     0.000000     0.000000     0.000000
   15     1.000000   180.000000     1.000000     0.000000     0.000000     0.000000     0.000000     0.000000
   16    -1.000000    90.000000     0.000000    -1.000000     0.000000     0.000000     0.000000     0.000000
   17    -1.000000   180.000000    -0.707107    -0.707107     0.000000     0.000000     0.000000     0.000000
   18    -1.000000    90.000000     1.000000     0.000000     0.000000     0.000000     0.000000     0.000000
   19     1.000000   120.000000     0.577350    -0.577350    -0.577350     0.000000     0.000000     0.000000
   20     1.000000   180.000000     0.000000     1.000000     0.000000     0.000000     0.000000     0.000000
   21     1.000000   120.000000     0.577350     0.577350    -0.577350     0.000000     0.000000     0.000000
   22    -1.000000   180.000000     0.000000    -0.707107     0.707107     0.000000     0.000000     0.000000
   23    -1.000000   180.000000    -0.707107     0.707107     0.000000     0.000000     0.000000     0.000000
   24    -1.000000   180.000000    -0.707107     0.000000     0.707107     0.000000     0.000000     0.000000
   25    -1.000000     0.000000     1.000000     0.000000     0.000000     0.750000     0.750000    -0.750000
   26    -1.000000   120.000000    -0.577350    -0.577350    -0.577350     0.750000     0.750000    -0.750000
[...]
      2.920037  4.866728  6.813419     0.120398    0.101907   -0.012188
      5.840073  5.840073  5.840073     0.120404    0.101912   -0.012189
      1.946691  1.946691  5.840073     0.120404    0.101912   -0.012189
      4.866728  0.973346  4.866728     0.120396    0.101906   -0.012189
      2.920037  6.813419  4.866728     0.120396    0.101905   -0.012187
      0.973346  4.866728  4.866728     0.120396    0.101906   -0.012189
      6.813419  2.920037  4.866728     0.120396    0.101905   -0.012187
      0.000000  0.000000  3.893382     0.120404    0.101912   -0.012189
      3.893382  3.893382  3.893382     0.120404    0.101912   -0.012189
      6.813419  4.866728  2.920037     0.120398    0.101907   -0.012188
      0.973346  2.920037  2.920037     0.120398    0.101907   -0.012188
      2.920037  0.973346  2.920037     0.120398    0.101907   -0.012188
      4.866728  6.813419  2.920037     0.120398    0.101907   -0.012188
      1.946691  5.840073  1.946691     0.120404    0.101912   -0.012189
      5.840073  1.946691  1.946691     0.120404    0.101912   -0.012189
      0.973346  0.973346  0.973346     0.120396    0.101906   -0.012189
      2.920037  2.920037  0.973346     0.120396    0.101905   -0.012187
      4.866728  4.866728  0.973346     0.120396    0.101906   -0.012189
      6.813419  6.813419  0.973346     0.120396    0.101905   -0.012187
      3.893382  0.000000  0.000000     0.120404    0.101912   -0.012189
      0.000000  3.893382  0.000000     0.120404    0.101912   -0.012189
      6.871331  6.871331  6.871331     0.085010    0.071955   -0.008600
      4.808816  4.808816  6.871331     0.085011    0.071956   -0.008611
      2.977948  2.977948  6.871331     0.085010    0.071955   -0.008600
      0.915434  0.915434  6.871331     0.085011    0.071956   -0.008611
      2.862125  6.755507  6.755507     0.085010    0.071955   -0.008600
      1.031257  4.924639  6.755507     0.085011    0.071956   -0.008611
      6.755507  2.862125  6.755507     0.085010    0.071955   -0.008600
      4.924639  1.031257  6.755507     0.085011    0.071956   -0.008611
      6.755507  1.031257  4.924639     0.085006    0.071949   -0.008606
      2.862125  4.924639  4.924639     0.085006    0.071949   -0.008606
      4.924639  2.862125  4.924639     0.085005    0.071950   -0.008605
      1.031257  6.755507  4.924639     0.085005    0.071950   -0.008605
      0.915434  2.977948  4.808816     0.085005    0.071950   -0.008605
      6.871331  4.808816  4.808816     0.085006    0.071949   -0.008606
      4.808816  6.871331  4.808816     0.085005    0.071950   -0.008605
      2.977948  0.915434  4.808816     0.085006    0.071949   -0.008606
      2.977948  6.871331  2.977948     0.085010    0.071955   -0.008600
      4.808816  0.915434  2.977948     0.085011    0.071956   -0.008611
      6.871331  2.977948  2.977948     0.085010    0.071955   -0.008600
      0.915434  4.808816  2.977948     0.085011    0.071956   -0.008611
      4.924639  4.924639  2.862125     0.085011    0.071956   -0.008611
      1.031257  1.031257  2.862125     0.085011    0.071956   -0.008611
      2.862125  2.862125  2.862125     0.085010    0.071955   -0.008600
      6.755507  6.755507  2.862125     0.085010    0.071955   -0.008600
      1.031257  2.862125  1.031257     0.085005    0.071950   -0.008605
      2.862125  1.031257  1.031257     0.085006    0.071949   -0.008606
      4.924639  6.755507  1.031257     0.085005    0.071950   -0.008605
      6.755507  4.924639  1.031257     0.085006    0.071949   -0.008606
      6.871331  0.915434  0.915434     0.085006    0.071949   -0.008606
      0.915434  6.871331  0.915434     0.085005    0.071950   -0.008605
      2.977948  4.808816  0.915434     0.085006    0.071949   -0.008606
      4.808816  2.977948  0.915434     0.085005    0.071950   -0.008605

[...]

 168 f/i=    0.000657 THz     0.004129 2PiTHz    0.021921 cm-1     0.002718 meV
             X         Y         Z           dx          dy          dz
      0.973346  6.813419  6.813419    -0.006492   -0.011188   -0.157675
      6.813419  0.973346  6.813419    -0.006490   -0.011190   -0.157675
      4.866728  2.920037  6.813419    -0.006492   -0.011188   -0.157675
      2.920037  4.866728  6.813419    -0.006490   -0.011190   -0.157675
      5.840073  5.840073  5.840073    -0.006491   -0.011190   -0.157685
      1.946691  1.946691  5.840073    -0.006491   -0.011190   -0.157685
      4.866728  0.973346  4.866728    -0.006490   -0.011188   -0.157675
      2.920037  6.813419  4.866728    -0.006492   -0.011190   -0.157676
      0.973346  4.866728  4.866728    -0.006490   -0.011188   -0.157675
      6.813419  2.920037  4.866728    -0.006492   -0.011190   -0.157676
      0.000000  0.000000  3.893382    -0.006491   -0.011190   -0.157685
      3.893382  3.893382  3.893382    -0.006491   -0.011190   -0.157685
      6.813419  4.866728  2.920037    -0.006490   -0.011190   -0.157675
      0.973346  2.920037  2.920037    -0.006492   -0.011188   -0.157675
      2.920037  0.973346  2.920037    -0.006490   -0.011190   -0.157675
      4.866728  6.813419  2.920037    -0.006492   -0.011188   -0.157675
      1.946691  5.840073  1.946691    -0.006491   -0.011190   -0.157685
      5.840073  1.946691  1.946691    -0.006491   -0.011190   -0.157685
      0.973346  0.973346  0.973346    -0.006490   -0.011188   -0.157675
      2.920037  2.920037  0.973346    -0.006492   -0.011190   -0.157676
      4.866728  4.866728  0.973346    -0.006490   -0.011188   -0.157675
      6.813419  6.813419  0.973346    -0.006492   -0.011190   -0.157676
      3.893382  0.000000  0.000000    -0.006491   -0.011190   -0.157685
      0.000000  3.893382  0.000000    -0.006491   -0.011190   -0.157685
      6.871331  6.871331  6.871331    -0.004587   -0.007905   -0.111330
      4.808816  4.808816  6.871331    -0.004579   -0.007896   -0.111329
      2.977948  2.977948  6.871331    -0.004587   -0.007905   -0.111330
      0.915434  0.915434  6.871331    -0.004579   -0.007896   -0.111329
      2.862125  6.755507  6.755507    -0.004587   -0.007905   -0.111330
      1.031257  4.924639  6.755507    -0.004579   -0.007896   -0.111329
      6.755507  2.862125  6.755507    -0.004587   -0.007905   -0.111330
      4.924639  1.031257  6.755507    -0.004579   -0.007896   -0.111329
      6.755507  1.031257  4.924639    -0.004579   -0.007904   -0.111329
      2.862125  4.924639  4.924639    -0.004579   -0.007904   -0.111329
      4.924639  2.862125  4.924639    -0.004587   -0.007896   -0.111329
      1.031257  6.755507  4.924639    -0.004587   -0.007896   -0.111329
      0.915434  2.977948  4.808816    -0.004587   -0.007896   -0.111329
      6.871331  4.808816  4.808816    -0.004579   -0.007904   -0.111329
      4.808816  6.871331  4.808816    -0.004587   -0.007896   -0.111329
      2.977948  0.915434  4.808816    -0.004579   -0.007904   -0.111329
      2.977948  6.871331  2.977948    -0.004587   -0.007905   -0.111330
      4.808816  0.915434  2.977948    -0.004579   -0.007896   -0.111329
      6.871331  2.977948  2.977948    -0.004587   -0.007905   -0.111330
      0.915434  4.808816  2.977948    -0.004579   -0.007896   -0.111329
      4.924639  4.924639  2.862125    -0.004579   -0.007896   -0.111329
      1.031257  1.031257  2.862125    -0.004579   -0.007896   -0.111329
      2.862125  2.862125  2.862125    -0.004587   -0.007905   -0.111330
      6.755507  6.755507  2.862125    -0.004587   -0.007905   -0.111330
      1.031257  2.862125  1.031257    -0.004587   -0.007896   -0.111329
      2.862125  1.031257  1.031257    -0.004579   -0.007904   -0.111329
      4.924639  6.755507  1.031257    -0.004587   -0.007896   -0.111329
      6.755507  4.924639  1.031257    -0.004579   -0.007904   -0.111329
      6.871331  0.915434  0.915434    -0.004579   -0.007904   -0.111329
      0.915434  6.871331  0.915434    -0.004587   -0.007896   -0.111329
      2.977948  4.808816  0.915434    -0.004579   -0.007904   -0.111329
      4.808816  2.977948  0.915434    -0.004587   -0.007896   -0.111329

 ELASTIC MODULI CONTR FROM IONIC RELAXATION (kBar)
 Direction    XX          YY          ZZ          XY          YZ          ZX
 XX        -293.5993    101.3822    101.3822      0.0000      0.0000      0.0000
 YY         101.3822   -293.5993    101.3822      0.0000      0.0000      0.0000
 ZZ         101.3822    101.3822   -293.5993      0.0000      0.0000      0.0000
 XY           0.0000      0.0000      0.0000    -73.4574      0.0000      0.0000
 YZ           0.0000      0.0000      0.0000      0.0000    -73.4574      0.0000
 ZX           0.0000      0.0000      0.0000      0.0000      0.0000    -73.4574

 TOTAL ELASTIC MODULI (kBar)
 Direction    XX          YY          ZZ          XY          YZ          ZX
 XX        5195.2239   1846.1307   1846.1307      0.0000      0.0000      0.0000
 YY        1846.1307   5195.2239   1846.1307      0.0000      0.0000      0.0000
 ZZ        1846.1307   1846.1307   5195.2239      0.0000      0.0000      0.0000
 XY           0.0000      0.0000      0.0000   3290.0420      0.0000      0.0000
 YZ           0.0000      0.0000      0.0000      0.0000   3290.0420      0.0000
 ZX           0.0000      0.0000      0.0000      0.0000      0.0000   3290.0420

  LATTYP: Found a simple cubic cell.
 ALAT       =     7.7867631903

[...]

Analysis of symmetry for initial positions (statically):
 Subroutine PRICEL returns following result:

[...]

The static configuration has the point symmetry T_d .
 The point group associated with its full space group is O_h .

Analysis of symmetry for dynamics (positions and initial velocities):
 Subroutine PRICEL returns following result:

[...]

The dynamic configuration has the point symmetry T_d .
 The point group associated with its full space group is O_h .

Analysis of constrained symmetry for selective dynamics:
 Subroutine PRICEL returns following result:

  LATTYP: Found a face centered cubic cell.
 ALAT       =     7.7867631903

  Lattice vectors:

 A1 = (   3.8933815952,   3.8933815952,   0.0000000000)
 A2 = (   3.8933815952,   0.0000000000,  -3.8933815952)
 A3 = (   0.0000000000,   3.8933815952,  -3.8933815952)

   4 primitive cells build up your supercell.

 Routine SETGRP: Setting up the symmetry group for a
 simple cubic supercell.

 Subroutine GETGRP returns: Found 48 space group operations
 (whereof 24 operations were pure point group operations)
 out of a pool of 48 trial point group operations.

The constrained configuration has the point symmetry T_d .
 The point group associated with its full space group is O_h .

 Subroutine INISYM returns: Found 48 space group operations
 (whereof 24 operations are pure point group operations),
 and found     4 'primitive' translations

 KPOINTS: Automatic mesh

Automatic generation of k-mesh.
Space group operators:
 irot       det(A)        alpha          n_x          n_y          n_z        tau_x        tau_y        tau_z
    1     1.000000     0.000000     1.000000     0.000000     0.000000     0.000000     0.000000     0.000000
    2     1.000000   120.000000    -0.577350    -0.577350    -0.577350     0.000000     0.000000     0.000000
    3     1.000000   120.000000     0.577350     0.577350     0.577350     0.000000     0.000000     0.000000
    4    -1.000000    90.000000     0.000000     0.000000    -1.000000     0.000000     0.000000     0.000000
    5    -1.000000   180.000000     0.000000    -0.707107    -0.707107     0.000000     0.000000     0.000000
    6    -1.000000    90.000000     0.000000     1.000000     0.000000     0.000000     0.000000     0.000000
    7     1.000000   180.000000     0.000000     0.000000     1.000000     0.000000     0.000000     0.000000
    8     1.000000   120.000000    -0.577350     0.577350     0.577350     0.000000     0.000000     0.000000
    9     1.000000   120.000000    -0.577350     0.577350    -0.577350     0.000000     0.000000     0.000000
   10    -1.000000    90.000000     0.000000     0.000000     1.000000     0.000000     0.000000     0.000000
   11    -1.000000    90.000000    -1.000000     0.000000     0.000000     0.000000     0.000000     0.000000
   12    -1.000000   179.999999     0.707107     0.000000     0.707107     0.000000     0.000000     0.000000
   13     1.000000   120.000000     0.577350    -0.577350     0.577350     0.000000     0.000000     0.000000
   14     1.000000   120.000000    -0.577350    -0.577350     0.577350     0.000000     0.000000     0.000000
   15     1.000000   180.000000     1.000000     0.000000     0.000000     0.000000     0.000000     0.000000
   16    -1.000000    90.000000     0.000000    -1.000000     0.000000     0.000000     0.000000     0.000000
   17    -1.000000   180.000000    -0.707107    -0.707107     0.000000     0.000000     0.000000     0.000000
   18    -1.000000    90.000000     1.000000     0.000000     0.000000     0.000000     0.000000     0.000000
   19     1.000000   120.000000     0.577350    -0.577350    -0.577350     0.000000     0.000000     0.000000
   20     1.000000   180.000000     0.000000     1.000000     0.000000     0.000000     0.000000     0.000000
   21     1.000000   120.000000     0.577350     0.577350    -0.577350     0.000000     0.000000     0.000000
   22    -1.000000   180.000000     0.000000    -0.707107     0.707107     0.000000     0.000000     0.000000
   23    -1.000000   180.000000    -0.707107     0.707107     0.000000     0.000000     0.000000     0.000000
   24    -1.000000   180.000000    -0.707107     0.000000     0.707107     0.000000     0.000000     0.000000
   25    -1.000000     0.000000     1.000000     0.000000     0.000000     0.750000     0.750000    -0.750000
   26    -1.000000   120.000000    -0.577350    -0.577350    -0.577350     0.750000     0.750000    -0.750000
   27    -1.000000   120.000000     0.577350     0.577350     0.577350     0.750000     0.750000    -0.750000
   28     1.000000    90.000000     0.000000     0.000000    -1.000000     0.750000     0.750000    -0.750000
   29     1.000000   180.000000     0.000000    -0.707107    -0.707107     0.750000     0.750000    -0.750000
   30     1.000000    90.000000     0.000000     1.000000     0.000000     0.750000     0.750000    -0.750000
   31    -1.000000   180.000000     0.000000     0.000000     1.000000     0.750000     0.750000    -0.750000
   32    -1.000000   120.000000    -0.577350     0.577350     0.577350     0.750000     0.750000    -0.750000
   33    -1.000000   120.000000    -0.577350     0.577350    -0.577350     0.750000     0.750000    -0.750000
   34     1.000000    90.000000     0.000000     0.000000     1.000000     0.750000     0.750000    -0.750000
   35     1.000000    90.000000    -1.000000     0.000000     0.000000     0.750000     0.750000    -0.750000
   36     1.000000   179.999999     0.707107     0.000000     0.707107     0.750000     0.750000    -0.750000
   37    -1.000000   120.000000     0.577350    -0.577350     0.577350     0.750000     0.750000    -0.750000
   38    -1.000000   120.000000    -0.577350    -0.577350     0.577350     0.750000     0.750000    -0.750000
   39    -1.000000   180.000000     1.000000     0.000000     0.000000     0.750000     0.750000    -0.750000
   40     1.000000    90.000000     0.000000    -1.000000     0.000000     0.750000     0.750000    -0.750000
   41     1.000000   180.000000    -0.707107    -0.707107     0.000000     0.750000     0.750000    -0.750000
   42     1.000000    90.000000     1.000000     0.000000     0.000000     0.750000     0.750000    -0.750000
   43    -1.000000   120.000000     0.577350    -0.577350    -0.577350     0.750000     0.750000    -0.750000
   44    -1.000000   180.000000     0.000000     1.000000     0.000000     0.750000     0.750000    -0.750000
   45    -1.000000   120.000000     0.577350     0.577350    -0.577350     0.750000     0.750000    -0.750000
   46     1.000000   180.000000     0.000000    -0.707107     0.707107     0.750000     0.750000    -0.750000
   47     1.000000   180.000000    -0.707107     0.707107     0.000000     0.750000     0.750000    -0.750000
   48     1.000000   180.000000    -0.707107     0.000000     0.707107     0.750000     0.750000    -0.750000

 Subroutine IBZKPT returns following result:

 Found      4 irreducible k-points:

 Following reciprocal coordinates:
            Coordinates               Weight
  0.000000  0.000000  0.000000      1.000000
  0.333333  0.000000  0.000000      6.000000
  0.333333  0.333333  0.000000     12.000000
  0.333333  0.333333  0.333333      8.000000

 Following cartesian coordinates:
            Coordinates               Weight
  0.000000  0.000000  0.000000      1.000000
  0.042808  0.000000  0.000000      6.000000
  0.042808  0.042808  0.000000     12.000000
  0.042808  0.042808  0.042808      8.000000