 vasp.5.4.1 05Feb16 (build Mar 26 2016 11:58:25) complex

 executed on           IFC91_ompi date 2016.11.24  20:22:52

 INCAR:
 POTCAR:   PAW_PBE Si 05Jan2001
 POTCAR:   PAW_PBE N 08Apr2002

 POTCAR:   PAW_PBE Si 05Jan2001
   VRHFIN =Si: s2p2

   TITEL  = PAW_PBE Si 05Jan2001
   POMASS =   28.085; ZVAL   =    4.000    mass and valenz
   ENMAX  =  245.345; ENMIN  =  184.009 eV
   QCUT   =   -4.246; QGAM   =    8.493    optimization parameters

   Description
     l     E      TYP  RCUT    TYP  RCUT
     0   .000     23  1.900
     0   .000     23  1.900
     1   .000     23  1.900
     1   .000     23  1.900
     2   .000      7  1.900

 POTCAR:   PAW_PBE N 08Apr2002
   VRHFIN =N: s2p3

   TITEL  = PAW_PBE N 08Apr2002
   POMASS =   14.001; ZVAL   =    5.000    mass and valenz
   ENMAX  =  400.000; ENMIN  =  300.000 eV
   QCUT   =   -5.562; QGAM   =   11.124    optimization parameters

   Description
     l     E      TYP  RCUT    TYP  RCUT
     0   .000     23  1.200
     0   .000     23  1.200
     1   .000     23  1.500
     1   .700     23  1.500
     2   .000      7  1.500

 PAW_PBE Si 05Jan2001                   :
 PAW_PBE N 08Apr2002                    :

 POSCAR: Si N
  positions in direct lattice
  velocities in cartesian coordinates
 exchange correlation table for  LEXCH =        8
   RHO(1)=    0.500       N(1)  =     2000
   RHO(2)=  100.500       N(2)  =     4000

 ion  position               nearest neighbor table
   1  0.175  0.406  0.750-  10 1.74   7 1.75  13 1.75  13 1.75   2 3.02   3 3.02   5 3.07   5 3.07
                             6 3.07   6 3.07
   2  0.594  0.769  0.750-  10 1.74   8 1.75  11 1.75  11 1.75   1 3.02   3 3.02   6 3.07   6 3.07
                             4 3.07   4 3.07
   3  0.231  0.825  0.750-  10 1.74   9 1.75  12 1.75  12 1.75   2 3.02   1 3.02   5 3.07   5 3.07
                             4 3.07   4 3.07
   4  0.825  0.594  0.250-  14 1.74  11 1.75   9 1.75   9 1.75   6 3.02   5 3.02   3 3.07   3 3.07
                             2 3.07   2 3.07
   5  0.406  0.231  0.250-  14 1.74  12 1.75   7 1.75   7 1.75   6 3.02   4 3.02   3 3.07   3 3.07
                             1 3.07   1 3.07
   6  0.769  0.175  0.250-  14 1.74  13 1.75   8 1.75   8 1.75   4 3.02   5 3.02   2 3.07   2 3.07
                             1 3.07   1 3.07
   7  0.330  0.299  0.750-   1 1.75   5 1.75   5 1.75
   8  0.701  0.031  0.750-   2 1.75   6 1.75   6 1.75
   9  0.969  0.670  0.750-   3 1.75   4 1.75   4 1.75
  10  0.333  0.667  0.750-   2 1.74   1 1.74   3 1.74
  11  0.670  0.701  0.250-   4 1.75   2 1.75   2 1.75
  12  0.299  0.969  0.250-   5 1.75   3 1.75   3 1.75
  13  0.031  0.330  0.250-   6 1.75   1 1.75   1 1.75
  14  0.667  0.333  0.250-   4 1.74   5 1.74   6 1.74

  LATTYP: Found a hexagonal cell.
 ALAT       =     7.6595137796
 C/A-ratio  =     0.3818403798

  Lattice vectors:

 A1 = (   7.6595137796,   0.0000000000,   0.0000000000)
 A2 = (  -3.8297568898,   6.6333335137,   0.0000000000)
 A3 = (   0.0000000000,   0.0000000000,   2.9247116510)

Analysis of symmetry for initial positions (statically):
 Subroutine PRICEL returns:
 Original cell was already a primitive cell.

 Routine SETGRP: Setting up the symmetry group for a
 hexagonal supercell.

 Subroutine GETGRP returns: Found 12 space group operations
 (whereof  6 operations were pure point group operations)
 out of a pool of 24 trial point group operations.

The static configuration has the point symmetry S_6 .
 The point group associated with its full space group is C_6h.

Analysis of symmetry for dynamics (positions and initial velocities):
 Subroutine PRICEL returns:
 Original cell was already a primitive cell.

[...]

The dynamic configuration has the point symmetry S_6 .
 The point group associated with its full space group is C_6h.

 Subroutine INISYM returns: Found 12 space group operations
 (whereof  6 operations are pure point group operations),
 and found     1 'primitive' translations

 KPOINTS: Automatic mesh

Automatic generation of k-mesh.
Space group operators:
 irot       det(A)        alpha          n_x          n_y          n_z        tau_x        tau_y        tau_z
    1     1.000000     0.000000     1.000000     0.000000     0.000000     0.000000     0.000000     0.000000
    2    -1.000000     0.000000     1.000000     0.000000     0.000000     0.000000     0.000000     0.000000
    3     1.000000   120.000000     0.000000     0.000000    -1.000000     0.000000     0.000000     0.000000
    4    -1.000000   120.000000     0.000000     0.000000    -1.000000     0.000000     0.000000     0.000000
    5     1.000000   120.000000     0.000000     0.000000     1.000000     0.000000     0.000000     0.000000
    6    -1.000000   120.000000     0.000000     0.000000     1.000000     0.000000     0.000000     0.000000
    7     1.000000    60.000000     0.000000     0.000000    -1.000000     0.000000     0.000000     0.500000
    8    -1.000000    60.000000     0.000000     0.000000    -1.000000     0.000000     0.000000     0.500000
    9     1.000000   180.000000     0.000000     0.000000     1.000000     0.000000     0.000000     0.500000
   10    -1.000000   180.000000     0.000000     0.000000     1.000000     0.000000     0.000000     0.500000
   11     1.000000    60.000000     0.000000     0.000000     1.000000     0.000000     0.000000     0.500000
   12    -1.000000    60.000000     0.000000     0.000000     1.000000     0.000000     0.000000     0.500000

 Subroutine IBZKPT returns following result:

 Found     16 irreducible k-points:

 Following reciprocal coordinates:
            Coordinates               Weight
  0.000000  0.000000  0.062500      2.000000
  0.250000  0.000000  0.062500     12.000000
  0.500000  0.000000  0.062500      6.000000
  0.250000  0.250000  0.062500     12.000000
  0.000000  0.000000  0.187500      2.000000
  0.250000  0.000000  0.187500     12.000000
  0.500000  0.000000  0.187500      6.000000
  0.250000  0.250000  0.187500     12.000000
  0.000000  0.000000  0.312500      2.000000
  0.250000  0.000000  0.312500     12.000000
  0.500000  0.000000  0.312500      6.000000
  0.250000  0.250000  0.312500     12.000000
  0.000000  0.000000  0.437500      2.000000
  0.250000  0.000000  0.437500     12.000000
  0.500000  0.000000  0.437500      6.000000
  0.250000  0.250000  0.437500     12.000000

 Following cartesian coordinates:
            Coordinates               Weight
  0.000000  0.000000  0.021370      2.000000
  0.032639  0.018844  0.021370     12.000000
  0.065278  0.037688  0.021370      6.000000
  0.032639  0.056533  0.021370     12.000000
  0.000000  0.000000  0.064109      2.000000
  0.032639  0.018844  0.064109     12.000000
  0.065278  0.037688  0.064109      6.000000
  0.032639  0.056533  0.064109     12.000000
  0.000000  0.000000  0.106848      2.000000
  0.032639  0.018844  0.106848     12.000000
  0.065278  0.037688  0.106848      6.000000
  0.032639  0.056533  0.106848     12.000000
  0.000000  0.000000  0.149587      2.000000
  0.032639  0.018844  0.149587     12.000000
  0.065278  0.037688  0.149587      6.000000
  0.032639  0.056533  0.149587     12.000000

 Subroutine IBZKPT_HF returns following result:

 Found    128 k-points in 1st BZ
 the following    128 k-points will be used (e.g. in the exchange kernel)
 Following reciprocal coordinates:   # in IRBZ
  0.000000  0.000000  0.062500    0.00781250   1 t-inv F
  0.250000  0.000000  0.062500    0.00781250   2 t-inv F
  0.500000  0.000000  0.062500    0.00781250   3 t-inv F
  0.250000  0.250000  0.062500    0.00781250   4 t-inv F
  0.000000  0.000000  0.187500    0.00781250   5 t-inv F
  0.250000  0.000000  0.187500    0.00781250   6 t-inv F
  0.500000  0.000000  0.187500    0.00781250   7 t-inv F
  0.250000  0.250000  0.187500    0.00781250   8 t-inv F
  0.000000  0.000000  0.312500    0.00781250   9 t-inv F
  0.250000  0.000000  0.312500    0.00781250  10 t-inv F
  0.500000  0.000000  0.312500    0.00781250  11 t-inv F
  0.250000  0.250000  0.312500    0.00781250  12 t-inv F
  0.000000  0.000000  0.437500    0.00781250  13 t-inv F
  0.250000  0.000000  0.437500    0.00781250  14 t-inv F
  0.500000  0.000000  0.437500    0.00781250  15 t-inv F
  0.250000  0.250000  0.437500    0.00781250  16 t-inv F
  0.000000  0.000000 -0.062500    0.00781250   1 t-inv F
 -0.250000  0.000000 -0.062500    0.00781250   2 t-inv F
 -0.250000  0.250000  0.062500    0.00781250   2 t-inv F
  0.250000 -0.250000 -0.062500    0.00781250   2 t-inv F
  0.000000 -0.250000  0.062500    0.00781250   2 t-inv F
  0.000000  0.250000 -0.062500    0.00781250   2 t-inv F
  0.000000  0.250000  0.062500    0.00781250   2 t-inv F
  0.000000 -0.250000 -0.062500    0.00781250   2 t-inv F
 -0.250000  0.000000  0.062500    0.00781250   2 t-inv F
  0.250000  0.000000 -0.062500    0.00781250   2 t-inv F
  0.250000 -0.250000  0.062500    0.00781250   2 t-inv F
 -0.250000  0.250000 -0.062500    0.00781250   2 t-inv F
 -0.500000  0.000000 -0.062500    0.00781250   3 t-inv F
 -0.500000  0.500000  0.062500    0.00781250   3 t-inv F
  0.500000 -0.500000 -0.062500    0.00781250   3 t-inv F
  0.000000 -0.500000  0.062500    0.00781250   3 t-inv F
  0.000000  0.500000 -0.062500    0.00781250   3 t-inv F
 -0.250000 -0.250000 -0.062500    0.00781250   4 t-inv F
 -0.500000  0.250000  0.062500    0.00781250   4 t-inv F
  0.500000 -0.250000 -0.062500    0.00781250   4 t-inv F
  0.250000 -0.500000  0.062500    0.00781250   4 t-inv F
 -0.250000  0.500000 -0.062500    0.00781250   4 t-inv F
 -0.250000  0.500000  0.062500    0.00781250   4 t-inv F
  0.250000 -0.500000 -0.062500    0.00781250   4 t-inv F
 -0.250000 -0.250000  0.062500    0.00781250   4 t-inv F
  0.250000  0.250000 -0.062500    0.00781250   4 t-inv F
  0.500000 -0.250000  0.062500    0.00781250   4 t-inv F
 -0.500000  0.250000 -0.062500    0.00781250   4 t-inv F
  0.000000  0.000000 -0.187500    0.00781250   5 t-inv F
 -0.250000  0.000000 -0.187500    0.00781250   6 t-inv F
 -0.250000  0.250000  0.187500    0.00781250   6 t-inv F
  0.250000 -0.250000 -0.187500    0.00781250   6 t-inv F
  0.000000 -0.250000  0.187500    0.00781250   6 t-inv F
  0.000000  0.250000 -0.187500    0.00781250   6 t-inv F
  0.000000  0.250000  0.187500    0.00781250   6 t-inv F
  0.000000 -0.250000 -0.187500    0.00781250   6 t-inv F
 -0.250000  0.000000  0.187500    0.00781250   6 t-inv F
  0.250000  0.000000 -0.187500    0.00781250   6 t-inv F
  0.250000 -0.250000  0.187500    0.00781250   6 t-inv F
 -0.250000  0.250000 -0.187500    0.00781250   6 t-inv F
 -0.500000  0.000000 -0.187500    0.00781250   7 t-inv F
 -0.500000  0.500000  0.187500    0.00781250   7 t-inv F
  0.500000 -0.500000 -0.187500    0.00781250   7 t-inv F
  0.000000 -0.500000  0.187500    0.00781250   7 t-inv F
[...]
 -0.500000  0.500000  0.437500    0.00781250  15 t-inv F
  0.500000 -0.500000 -0.437500    0.00781250  15 t-inv F
  0.000000 -0.500000  0.437500    0.00781250  15 t-inv F
  0.000000  0.500000 -0.437500    0.00781250  15 t-inv F
 -0.250000 -0.250000 -0.437500    0.00781250  16 t-inv F
 -0.500000  0.250000  0.437500    0.00781250  16 t-inv F
  0.500000 -0.250000 -0.437500    0.00781250  16 t-inv F
[...]
  energy-cutoff  :      500.00
  volume of cell :      148.60
      direct lattice vectors                 reciprocal lattice vectors
     7.659513780  0.000000000  0.000000000     0.130556590  0.075376882  0.000000000
    -3.829756890  6.633333514  0.000000000     0.000000000  0.150753765  0.000000000
     0.000000000  0.000000000  2.924711651     0.000000000  0.000000000  0.341914048

  length of vectors
     7.659513780  7.659513780  2.924711651     0.150753765  0.150753765  0.341914048

 FORCES acting on ions
    electron-ion (+dipol)            ewald-force                    non-local-force                 convergence-correction
   0.499E+01 0.356E+02 -.518E+00   -.405E+01 -.348E+02 0.435E+00   -.942E+00 -.802E+00 0.589E-01   0.413E-05 0.192E-04 -.144E-06
   -.334E+02 -.135E+02 -.518E+00   0.322E+02 0.139E+02 0.435E+00   0.117E+01 -.415E+00 0.589E-01   -.188E-04 -.594E-05 -.145E-06
   0.284E+02 -.221E+02 -.518E+00   -.282E+02 0.209E+02 0.435E+00   -.224E+00 0.122E+01 0.589E-01   0.145E-04 -.133E-04 -.145E-06
   -.499E+01 -.357E+02 -.421E-03   0.405E+01 0.349E+02 -.658E-02   0.943E+00 0.804E+00 0.428E-02   0.209E-05 -.234E-05 0.245E-05
   0.334E+02 0.135E+02 -.421E-03   -.322E+02 -.139E+02 -.658E-02   -.117E+01 0.414E+00 0.428E-02   0.104E-05 0.277E-05 0.245E-05
   -.284E+02 0.221E+02 -.421E-03   0.282E+02 -.209E+02 -.658E-02   0.225E+00 -.122E+01 0.428E-02   -.301E-05 -.434E-06 0.245E-05
   0.312E+02 0.364E+02 -.425E-01   -.324E+02 -.352E+02 0.422E-01   0.120E+01 -.120E+01 0.511E-02   -.873E-06 0.343E-07 -.124E-04
   -.471E+02 0.882E+01 -.425E-01   0.467E+02 -.105E+02 0.422E-01   0.442E+00 0.164E+01 0.511E-02   0.182E-06 -.643E-06 -.124E-04
   0.159E+02 -.452E+02 -.425E-01   -.143E+02 0.456E+02 0.422E-01   -.164E+01 -.436E+00 0.511E-02   0.647E-06 0.611E-06 -.124E-04
   0.391E-07 -.271E-06 0.606E+00   -.358E-10 0.115E-10 -.114E+01   0.000E+00 0.000E+00 0.620E+00   -.131E-06 -.934E-08 -.929E-04
   -.312E+02 -.364E+02 0.116E+00   0.324E+02 0.352E+02 -.913E-01   -.120E+01 0.120E+01 -.333E-01   -.127E-05 -.204E-07 0.262E-04
   0.471E+02 -.882E+01 0.116E+00   -.467E+02 0.105E+02 -.913E-01   -.442E+00 -.164E+01 -.333E-01   0.571E-06 -.117E-05 0.262E-04
   -.159E+02 0.452E+02 0.116E+00   0.143E+02 -.456E+02 -.913E-01   0.164E+01 0.435E+00 -.333E-01   0.542E-06 0.121E-05 0.262E-04
   0.379E-08 0.374E-06 0.202E-02   0.761E-11 -.285E-10 -.307E-02   -.867E-18 -.867E-18 0.951E-03   0.186E-06 -.156E-07 0.909E-05
   -.113E-07 -.764E-08 -.726E+00   0.178E-13 -.944E-14 0.617E-14   0.221E-15 0.332E-15 0.726E+00   -.213E-06 -.693E-08 -.356E-04

 POSITION                                       TOTAL-FORCE (eV/Angst)
     -0.21518      2.69381      2.19353         0.000149      0.000754     -0.023480
      1.60444      5.10008      2.19353        -0.000727     -0.000248     -0.023480
     -1.38926      5.47278      2.19353         0.000578     -0.000506     -0.023480
      4.04494      3.93953      0.73118         0.000005     -0.000004     -0.002719
      2.22532      1.53326      0.73118         0.000001      0.000006     -0.002719
      5.21902      1.16055      0.73118        -0.000006     -0.000002     -0.002719
      1.38153      1.98475      2.19353        -0.000007      0.000015      0.004855
      5.24991      0.20407      2.19353        -0.000009     -0.000014      0.004855
      4.85783      4.44452      2.19353         0.000017     -0.000001      0.004855
      0.00000      4.42222      2.17853         0.000000      0.000000      0.089749
      2.44822      4.64859      0.73118         0.000279     -0.000023     -0.008540
     -1.42015      6.42926      0.73118        -0.000119      0.000253     -0.008540
     -1.02807      2.18882      0.73118        -0.000160     -0.000230     -0.008540
      3.82976      2.21111      0.73118         0.000000      0.000000     -0.000096
    total drift:                                0.000000      0.000000      0.000029

  FREE ENERGIE OF THE ION-ELECTRON SYSTEM (eV)
  free  energy   TOTEN  =      -114.54303606 eV

  energy  without entropy=     -114.54303606  energy(sigma->0) =     -114.54303606

 d Force =-0.7897985E-06[-0.269E-02, 0.269E-02]  d Energy = 0.1097897E-07-0.801E-06
 d Force = 0.6938894E-17[ 0.341E-01,-0.341E-01]  d Ewald  = 0.0000000E+00 0.000E+00

 Finite differences progress:
  Degree of freedom:  14/ 14
  Displacement:        2/  2
  Total:              28/ 28

  ELASTIC MODULI  (kBar)
 Direction    XX          YY          ZZ          XY          YZ          ZX
 XX        5110.4747   1205.5685    829.8665      0.0215      0.0000      0.0000
 YY        1204.4445   5111.8551    829.6296      0.0009      0.0000      0.0000
 ZZ         830.2830    830.2830   6023.6352      0.0000      0.0000      0.0000
 XY          -0.2092     -0.4934     -0.9729   1951.6154      0.0000      0.0000
 YZ          -0.0065     -0.0458     -0.0200     -0.0817   1633.1932      0.0161
 ZX           0.0236     -0.0099     -0.0081      0.0110     -0.0022   1633.1623

  SYMMETRIZED ELASTIC MODULI (kBar)
 Direction    XX          YY          ZZ          XY          YZ          ZX
 XX        5110.4330   1205.7384    830.0155      0.0000      0.0000      0.0000
 YY        1205.7384   5110.4330    830.0155      0.0000      0.0000      0.0000
 ZZ         830.0155    830.0155   6023.6352      0.0000      0.0000      0.0000
 XY           0.0000      0.0000      0.0000   1952.3473      0.0000      0.0000
 YZ           0.0000      0.0000      0.0000      0.0000   1633.1777      0.0000
 ZX           0.0000      0.0000      0.0000      0.0000      0.0000   1633.1777

 INTERNAL STRAIN TENSORS FROM STRAINED CELLS

 INTERNAL STRAIN TENSOR FOR ION    1 for displacements in x,y,z  (eV/Angst):
          X           Y           Z          XY          YZ          ZX
  x    13.08488     1.66749   -11.09288   -14.65722     0.00067     0.00001
  y   -11.53351    23.82688   -11.29843     3.95773     0.00019     0.00003
  z     0.00000     0.00000     0.00000     0.00000    -9.94232   -11.98251

[...]

 INTERNAL STRAIN TENSORS FROM DISPLACED ATOMS

[...]

 INTERNAL STRAIN TENSOR FOR ION   14 for displacements in x,y,z  (eV/Angst):
          X           Y           Z          XY          YZ          ZX
  x    -7.08604     7.08604     0.00000   -16.20191     0.00000     0.00000
  y   -16.20191    16.20191     0.00000     7.08604     0.00000     0.00000
  z     0.00000     0.00000     0.00000     0.00000     0.00000     0.00000

 Eigenvectors and eigenvalues of the dynamical matrix

   1 f  =   30.840534 THz   193.776787 2PiTHz 1028.729434 cm-1   127.546240 meV
             X         Y         Z           dx          dy          dz
     -0.215183  2.693809  2.193534     0.003736   -0.175652    0.000000
      1.604442  5.100075  2.193534     0.150251    0.091061    0.000000
     -1.389259  5.472783  2.193534    -0.153987    0.084591    0.000000
      4.044940  3.939525  0.731178     0.003736   -0.175652    0.000000
      2.225315  1.533258  0.731178     0.150251    0.091061    0.000000
      5.219016  1.160550  0.731178    -0.153987    0.084591    0.000000
      1.381534  1.984745  2.193534    -0.331697    0.160550    0.000000
      5.249907  0.204071  2.193534     0.026808   -0.367533    0.000000
      4.857830  4.444517  2.193534     0.304889    0.206983    0.000000
      0.000000  4.422222  2.193534     0.000000    0.000000    0.000000
      2.448223  4.648588  0.731178    -0.331697    0.160550    0.000000
     -1.420150  6.429263  0.731178     0.026808   -0.367533    0.000000
     -1.028073  2.188816  0.731178     0.304889    0.206983    0.000000
      3.829757  2.211111  0.731178     0.000000    0.000000    0.000000

[...]

  39 f  =    5.306347 THz    33.340763 2PiTHz  177.000689 cm-1    21.945296 meV
             X         Y         Z           dx          dy          dz
     -0.215183  2.693809  2.193534    -0.129914    0.171817    0.000000
      1.604442  5.100075  2.193534     0.291003    0.226898    0.000000
     -1.389259  5.472783  2.193534     0.128246   -0.165168    0.000000
      4.044940  3.939525  0.731178     0.129914   -0.171817    0.000000
      2.225315  1.533258  0.731178    -0.291003   -0.226898    0.000000
      5.219016  1.160550  0.731178    -0.128246    0.165168    0.000000
      1.381534  1.984745  2.193534    -0.226661   -0.199737    0.000000
      5.249907  0.204071  2.193534     0.047019    0.128220    0.000000
      4.857830  4.444517  2.193534     0.194198   -0.272772    0.000000
      0.000000  4.422222  2.193534     0.216022    0.070744    0.000000
      2.448223  4.648588  0.731178     0.226661    0.199737    0.000000
     -1.420150  6.429263  0.731178    -0.047019   -0.128220    0.000000
     -1.028073  2.188816  0.731178    -0.194198    0.272772    0.000000
      3.829757  2.211111  0.731178    -0.216022   -0.070744    0.000000

  40 f/i=    0.000904 THz     0.005677 2PiTHz    0.030138 cm-1     0.003737 meV
             X         Y         Z           dx          dy          dz
     -0.215183  2.693809  2.193534     0.000000    0.000000   -0.316407
      1.604442  5.100075  2.193534     0.000000    0.000000   -0.316407
     -1.389259  5.472783  2.193534     0.000000    0.000000   -0.316407
      4.044940  3.939525  0.731178     0.000000    0.000000   -0.316407
      2.225315  1.533258  0.731178     0.000000    0.000000   -0.316407
      5.219016  1.160550  0.731178     0.000000    0.000000   -0.316407
      1.381534  1.984745  2.193534     0.000000    0.000000   -0.223401
      5.249907  0.204071  2.193534     0.000000    0.000000   -0.223401
      4.857830  4.444517  2.193534     0.000000    0.000000   -0.223401
      0.000000  4.422222  2.193534     0.000000    0.000000   -0.223465
      2.448223  4.648588  0.731178     0.000000    0.000000   -0.223401
     -1.420150  6.429263  0.731178     0.000000    0.000000   -0.223401
     -1.028073  2.188816  0.731178     0.000000    0.000000   -0.223401
      3.829757  2.211111  0.731178     0.000000    0.000000   -0.223465

[...]

  42 f/i=    0.001536 THz     0.009654 2PiTHz    0.051252 cm-1     0.006354 meV
             X         Y         Z           dx          dy          dz
     -0.215183  2.693809  2.193534    -0.281026   -0.145399    0.000000
      1.604442  5.100075  2.193534    -0.281013   -0.145398    0.000000
     -1.389259  5.472783  2.193534    -0.281019   -0.145410    0.000000
      4.044940  3.939525  0.731178    -0.281026   -0.145399    0.000000
      2.225315  1.533258  0.731178    -0.281013   -0.145398    0.000000
      5.219016  1.160550  0.731178    -0.281019   -0.145410    0.000000
      1.381534  1.984745  2.193534    -0.198430   -0.102684    0.000000
      5.249907  0.204071  2.193534    -0.198417   -0.102662    0.000000
      4.857830  4.444517  2.193534    -0.198405   -0.102685    0.000000
      0.000000  4.422222  2.193534    -0.198452   -0.102665    0.000000
      2.448223  4.648588  0.731178    -0.198430   -0.102684    0.000000
     -1.420150  6.429263  0.731178    -0.198417   -0.102662    0.000000
     -1.028073  2.188816  0.731178    -0.198405   -0.102685    0.000000
      3.829757  2.211111  0.731178    -0.198452   -0.102665    0.000000

 ELASTIC MODULI CONTR FROM IONIC RELAXATION (kBar)
 Direction    XX          YY          ZZ          XY          YZ          ZX
 XX       -1027.0426    628.5088    231.2800      0.0000      0.0000      0.0000
 YY         628.5088  -1027.0426    231.2800      0.0000      0.0000      0.0000
 ZZ         231.2800    231.2800   -735.6970      0.0000      0.0000      0.0000
 XY           0.0000      0.0000      0.0000   -827.7757      0.0000      0.0000
 YZ           0.0000      0.0000      0.0000      0.0000   -617.6803      0.0000
 ZX           0.0000      0.0000      0.0000      0.0000      0.0000   -617.6803

 TOTAL ELASTIC MODULI (kBar)
 Direction    XX          YY          ZZ          XY          YZ          ZX
 XX        4083.3904   1834.2473   1061.2955      0.0000      0.0000      0.0000
 YY        1834.2473   4083.3904   1061.2955      0.0000      0.0000      0.0000
 ZZ        1061.2955   1061.2955   5287.9382      0.0000      0.0000      0.0000
 XY           0.0000      0.0000      0.0000   1124.5715      0.0000      0.0000
 YZ           0.0000      0.0000      0.0000      0.0000   1015.4974      0.0000
 ZX           0.0000      0.0000      0.0000      0.0000      0.0000   1015.4974

  LATTYP: Found a hexagonal cell.
 ALAT       =     7.6595137796
 C/A-ratio  =     0.3818403798

  Lattice vectors:

 A1 = (   7.6595137796,   0.0000000000,   0.0000000000)
 A2 = (  -3.8297568898,   6.6333335137,   0.0000000000)
 A3 = (   0.0000000000,   0.0000000000,   2.9247116510)

Analysis of symmetry for initial positions (statically):
 Subroutine PRICEL returns:
 Original cell was already a primitive cell.

[...]

The static configuration has the point symmetry S_6 .
 The point group associated with its full space group is C_6h.

Analysis of symmetry for dynamics (positions and initial velocities):
 Subroutine PRICEL returns:
 Original cell was already a primitive cell.

 Routine SETGRP: Setting up the symmetry group for a
 hexagonal supercell.

 Subroutine GETGRP returns: Found 12 space group operations
 (whereof  6 operations were pure point group operations)
 out of a pool of 24 trial point group operations.

The dynamic configuration has the point symmetry S_6 .
 The point group associated with its full space group is C_6h.

 Subroutine INISYM returns: Found 12 space group operations
 (whereof  6 operations are pure point group operations),
 and found     1 'primitive' translations

 KPOINTS: Automatic mesh

Automatic generation of k-mesh.
Space group operators:
 irot       det(A)        alpha          n_x          n_y          n_z        tau_x        tau_y        tau_z
    1     1.000000     0.000000     1.000000     0.000000     0.000000     0.000000     0.000000     0.000000
    2    -1.000000     0.000000     1.000000     0.000000     0.000000     0.000000     0.000000     0.000000
    3     1.000000   120.000000     0.000000     0.000000    -1.000000     0.000000     0.000000     0.000000
    4    -1.000000   120.000000     0.000000     0.000000    -1.000000     0.000000     0.000000     0.000000
    5     1.000000   120.000000     0.000000     0.000000     1.000000     0.000000     0.000000     0.000000
    6    -1.000000   120.000000     0.000000     0.000000     1.000000     0.000000     0.000000     0.000000
    7     1.000000    60.000000     0.000000     0.000000    -1.000000     0.000000     0.000000     0.500000
    8    -1.000000    60.000000     0.000000     0.000000    -1.000000     0.000000     0.000000     0.500000
    9     1.000000   180.000000     0.000000     0.000000     1.000000     0.000000     0.000000     0.500000
   10    -1.000000   180.000000     0.000000     0.000000     1.000000     0.000000     0.000000     0.500000
   11     1.000000    60.000000     0.000000     0.000000     1.000000     0.000000     0.000000     0.500000
   12    -1.000000    60.000000     0.000000     0.000000     1.000000     0.000000     0.000000     0.500000

 Subroutine IBZKPT returns following result:

 Found     16 irreducible k-points:

 Following reciprocal coordinates:
            Coordinates               Weight
  0.000000  0.000000  0.062500      2.000000
  0.250000  0.000000  0.062500     12.000000
  0.500000  0.000000  0.062500      6.000000
  0.250000  0.250000  0.062500     12.000000
  0.000000  0.000000  0.187500      2.000000
  0.250000  0.000000  0.187500     12.000000
  0.500000  0.000000  0.187500      6.000000
  0.250000  0.250000  0.187500     12.000000
  0.000000  0.000000  0.312500      2.000000
  0.250000  0.000000  0.312500     12.000000
  0.500000  0.000000  0.312500      6.000000
  0.250000  0.250000  0.312500     12.000000
  0.000000  0.000000  0.437500      2.000000
  0.250000  0.000000  0.437500     12.000000
  0.500000  0.000000  0.437500      6.000000
  0.250000  0.250000  0.437500     12.000000

 Following cartesian coordinates:
            Coordinates               Weight
  0.000000  0.000000  0.021370      2.000000
  0.032639  0.018844  0.021370     12.000000
  0.065278  0.037688  0.021370      6.000000
  0.032639  0.056533  0.021370     12.000000
  0.000000  0.000000  0.064109      2.000000
  0.032639  0.018844  0.064109     12.000000
  0.065278  0.037688  0.064109      6.000000
  0.032639  0.056533  0.064109     12.000000
  0.000000  0.000000  0.106848      2.000000
  0.032639  0.018844  0.106848     12.000000
  0.065278  0.037688  0.106848      6.000000
  0.032639  0.056533  0.106848     12.000000
  0.000000  0.000000  0.149587      2.000000
  0.032639  0.018844  0.149587     12.000000
  0.065278  0.037688  0.149587      6.000000
  0.032639  0.056533  0.149587     12.000000